10
0 13 47 14 2 18 50 26 43 25 
84 0 13 80 9 67 80 20 99 75 
36 58 0 11 94 9 15 98 65 33 
32 50 39 0 11 52 82 74 60 61 
15 67 64 20 0 30 51 12 53 42 
43 59 92 100 87 0 50 44 53 19 
32 34 1 70 26 2 0 2 36 99 
44 78 77 64 29 32 10 0 42 47 
52 24 12 94 82 83 95 32 0 89 
92 14 60 37 2 3 39 93 61 0 
